/* Objective function */

max: 2.74 x11 + 2.74 x12 + 2.74 x13 +  2.74 x14 + 2.755 x21 + 2.755 x22 + 2.755 x23 + 2.755 x24 + 2.18 x31 + 2.18 x32 + 2.18 x33 + 2.18 x34  + 2.5825 x41 + 2.5825 x42 + 2.5825 x43 + 2.5825 x44 + 2.925 x51 + 2.925 x52 + 2.925 x53 + 2.925 x54 + 2.8275 x61 + 2.8275 x62 + 2.8275 x63 + 2.8275 x64 +3 x71 + 3 x72 + 3 x73 + 3 x74 + 2.15 x81 + 2.15 x82 + 2.15 x83 + 2.15 x84 + 2.915 x91 + 2.915 x92 + 2.915 x93 + 2.915 x94 + 2.6925 x101 + 2.6925 x102 + 2.6925 x103 + 2.6925x104 + 2.795 x111 + 2.795 x112 + 2.795 x113 + 2.795 x114 + 2.7825 x121 + 2.7825 x122 + 2.7825 x123 + 2.7825 x124;

/* Constraints */
x11 + x21 + x31 + x41 + x51 + x61 + x71 + x81 + x91 + x101 + x111 + x121 = 3;

x12 + x22 + x32 + x42 + x52 + x62 + x72 + x82 + x92 + x102 + x112 + x122 = 3;

x13 + x23 + x33 + x43 + x53 + x63 + x73 + x83 + x93 + x103 + x113 + x123 = 3;

x14 + x24 + x34 + x44 + x54 + x64 + x74 + x84 + x94 + x104 + x114 + x124 = 3;

x11 + x12 + x13 + x14 = 1;
  
x21 + x22 + x23 + x24 = 1;
  
x31 + x32 + x33 + x34 = 1;
  
x41 + x42 + x43 + x44 = 1;
  
x51 + x52 + x53 + x54 = 1;
  
x61 + x62 + x63 + x64 = 1;
  
x71 + x72 + x73 + x74 = 1;
  
x81 + x82 + x83 + x84 = 1;
  
x91 + x92 + x93 + x94 = 1;
  
x101 + x102 + x103 + x104 = 1;
  
x111 + x112 + x113 + x114 = 1;
  
x121 + x122 + x123 + x124 = 1;